c *********************************
c * Circuit generated by BenCGen
c *
c * CarryLookaheadBlock_38_38_38_InOutT
c *
c * Ports with 1 gate(s): 2
c * Ports with 2 gate(s): 163
c * Ports with 3 gate(s): 38
c * Ports with 4 gate(s): 27
c * Ports with 5 gate(s): 18
c * Total gates: 248
c *********************************
p cnf 324 964
1 117 0
-1 -117 0
1 -116 0
117 -116 0
-1 -117 116 0
1 39 -118 0
-1 39 118 0
1 -39 118 0
-1 -39 -118 0
1 -156 0
39 -156 0
-1 -39 156 0
2 40 -119 0
-2 40 119 0
2 -40 119 0
-2 -40 -119 0
2 -157 0
40 -157 0
-2 -40 157 0
3 41 -120 0
-3 41 120 0
3 -41 120 0
-3 -41 -120 0
3 -158 0
41 -158 0
-3 -41 158 0
4 42 -121 0
-4 42 121 0
4 -42 121 0
-4 -42 -121 0
4 -159 0
42 -159 0
-4 -42 159 0
5 43 -122 0
-5 43 122 0
5 -43 122 0
-5 -43 -122 0
5 -160 0
43 -160 0
-5 -43 160 0
6 44 -123 0
-6 44 123 0
6 -44 123 0
-6 -44 -123 0
6 -161 0
44 -161 0
-6 -44 161 0
7 45 -124 0
-7 45 124 0
7 -45 124 0
-7 -45 -124 0
7 -162 0
45 -162 0
-7 -45 162 0
8 46 -125 0
-8 46 125 0
8 -46 125 0
-8 -46 -125 0
8 -163 0
46 -163 0
-8 -46 163 0
9 47 -126 0
-9 47 126 0
9 -47 126 0
-9 -47 -126 0
9 -164 0
47 -164 0
-9 -47 164 0
10 48 -127 0
-10 48 127 0
10 -48 127 0
-10 -48 -127 0
10 -165 0
48 -165 0
-10 -48 165 0
11 49 -128 0
-11 49 128 0
11 -49 128 0
-11 -49 -128 0
11 -166 0
49 -166 0
-11 -49 166 0
12 50 -129 0
-12 50 129 0
12 -50 129 0
-12 -50 -129 0
12 -167 0
50 -167 0
-12 -50 167 0
13 51 -130 0
-13 51 130 0
13 -51 130 0
-13 -51 -130 0
13 -168 0
51 -168 0
-13 -51 168 0
14 52 -131 0
-14 52 131 0
14 -52 131 0
-14 -52 -131 0
14 -169 0
52 -169 0
-14 -52 169 0
15 53 -132 0
-15 53 132 0
15 -53 132 0
-15 -53 -132 0
15 -170 0
53 -170 0
-15 -53 170 0
16 54 -133 0
-16 54 133 0
16 -54 133 0
-16 -54 -133 0
16 -171 0
54 -171 0
-16 -54 171 0
17 55 -134 0
-17 55 134 0
17 -55 134 0
-17 -55 -134 0
17 -172 0
55 -172 0
-17 -55 172 0
18 56 -135 0
-18 56 135 0
18 -56 135 0
-18 -56 -135 0
18 -173 0
56 -173 0
-18 -56 173 0
19 57 -136 0
-19 57 136 0
19 -57 136 0
-19 -57 -136 0
19 -174 0
57 -174 0
-19 -57 174 0
20 58 -137 0
-20 58 137 0
20 -58 137 0
-20 -58 -137 0
20 -175 0
58 -175 0
-20 -58 175 0
21 59 -138 0
-21 59 138 0
21 -59 138 0
-21 -59 -138 0
21 -176 0
59 -176 0
-21 -59 176 0
22 60 -139 0
-22 60 139 0
22 -60 139 0
-22 -60 -139 0
22 -177 0
60 -177 0
-22 -60 177 0
23 61 -140 0
-23 61 140 0
23 -61 140 0
-23 -61 -140 0
23 -178 0
61 -178 0
-23 -61 178 0
24 62 -141 0
-24 62 141 0
24 -62 141 0
-24 -62 -141 0
24 -179 0
62 -179 0
-24 -62 179 0
25 63 -142 0
-25 63 142 0
25 -63 142 0
-25 -63 -142 0
25 -180 0
63 -180 0
-25 -63 180 0
26 64 -143 0
-26 64 143 0
26 -64 143 0
-26 -64 -143 0
26 -181 0
64 -181 0
-26 -64 181 0
27 65 -144 0
-27 65 144 0
27 -65 144 0
-27 -65 -144 0
27 -182 0
65 -182 0
-27 -65 182 0
28 66 -145 0
-28 66 145 0
28 -66 145 0
-28 -66 -145 0
28 -183 0
66 -183 0
-28 -66 183 0
29 67 -146 0
-29 67 146 0
29 -67 146 0
-29 -67 -146 0
29 -184 0
67 -184 0
-29 -67 184 0
30 68 -147 0
-30 68 147 0
30 -68 147 0
-30 -68 -147 0
30 -185 0
68 -185 0
-30 -68 185 0
31 69 -148 0
-31 69 148 0
31 -69 148 0
-31 -69 -148 0
31 -186 0
69 -186 0
-31 -69 186 0
32 70 -149 0
-32 70 149 0
32 -70 149 0
-32 -70 -149 0
32 -187 0
70 -187 0
-32 -70 187 0
33 71 -150 0
-33 71 150 0
33 -71 150 0
-33 -71 -150 0
33 -188 0
71 -188 0
-33 -71 188 0
34 72 -151 0
-34 72 151 0
34 -72 151 0
-34 -72 -151 0
34 -189 0
72 -189 0
-34 -72 189 0
35 73 -152 0
-35 73 152 0
35 -73 152 0
-35 -73 -152 0
35 -190 0
73 -190 0
-35 -73 190 0
36 74 -153 0
-36 74 153 0
36 -74 153 0
-36 -74 -153 0
36 -191 0
74 -191 0
-36 -74 191 0
37 75 -154 0
-37 75 154 0
37 -75 154 0
-37 -75 -154 0
37 -192 0
75 -192 0
-37 -75 192 0
38 76 -155 0
-38 76 155 0
38 -76 155 0
-38 -76 -155 0
38 -193 0
76 -193 0
-38 -76 193 0
116 -232 0
118 -232 0
-116 -118 232 0
116 -233 0
118 -233 0
119 -233 0
-116 -118 -119 233 0
156 -234 0
119 -234 0
-156 -119 234 0
116 -235 0
118 -235 0
119 -235 0
120 -235 0
-116 -118 -119 -120 235 0
156 -236 0
119 -236 0
120 -236 0
-156 -119 -120 236 0
157 -237 0
120 -237 0
-157 -120 237 0
116 -238 0
118 -238 0
119 -238 0
120 -238 0
121 -238 0
-116 -118 -119 -120 -121 238 0
156 -239 0
119 -239 0
120 -239 0
121 -239 0
-156 -119 -120 -121 239 0
157 -240 0
120 -240 0
121 -240 0
-157 -120 -121 240 0
158 -241 0
121 -241 0
-158 -121 241 0
-156 194 0
-232 194 0
156 232 -194 0
-157 195 0
-233 195 0
-234 195 0
157 233 234 -195 0
-158 196 0
-235 196 0
-236 196 0
-237 196 0
158 235 236 237 -196 0
-159 197 0
-238 197 0
-239 197 0
-240 197 0
-241 197 0
159 238 239 240 241 -197 0
197 -242 0
122 -242 0
-197 -122 242 0
197 -243 0
122 -243 0
123 -243 0
-197 -122 -123 243 0
160 -244 0
123 -244 0
-160 -123 244 0
197 -245 0
122 -245 0
123 -245 0
124 -245 0
-197 -122 -123 -124 245 0
160 -246 0
123 -246 0
124 -246 0
-160 -123 -124 246 0
161 -247 0
124 -247 0
-161 -124 247 0
197 -248 0
122 -248 0
123 -248 0
124 -248 0
125 -248 0
-197 -122 -123 -124 -125 248 0
160 -249 0
123 -249 0
124 -249 0
125 -249 0
-160 -123 -124 -125 249 0
161 -250 0
124 -250 0
125 -250 0
-161 -124 -125 250 0
162 -251 0
125 -251 0
-162 -125 251 0
-160 198 0
-242 198 0
160 242 -198 0
-161 199 0
-243 199 0
-244 199 0
161 243 244 -199 0
-162 200 0
-245 200 0
-246 200 0
-247 200 0
162 245 246 247 -200 0
-163 201 0
-248 201 0
-249 201 0
-250 201 0
-251 201 0
163 248 249 250 251 -201 0
201 -252 0
126 -252 0
-201 -126 252 0
201 -253 0
126 -253 0
127 -253 0
-201 -126 -127 253 0
164 -254 0
127 -254 0
-164 -127 254 0
201 -255 0
126 -255 0
127 -255 0
128 -255 0
-201 -126 -127 -128 255 0
164 -256 0
127 -256 0
128 -256 0
-164 -127 -128 256 0
165 -257 0
128 -257 0
-165 -128 257 0
201 -258 0
126 -258 0
127 -258 0
128 -258 0
129 -258 0
-201 -126 -127 -128 -129 258 0
164 -259 0
127 -259 0
128 -259 0
129 -259 0
-164 -127 -128 -129 259 0
165 -260 0
128 -260 0
129 -260 0
-165 -128 -129 260 0
166 -261 0
129 -261 0
-166 -129 261 0
-164 202 0
-252 202 0
164 252 -202 0
-165 203 0
-253 203 0
-254 203 0
165 253 254 -203 0
-166 204 0
-255 204 0
-256 204 0
-257 204 0
166 255 256 257 -204 0
-167 205 0
-258 205 0
-259 205 0
-260 205 0
-261 205 0
167 258 259 260 261 -205 0
205 -262 0
130 -262 0
-205 -130 262 0
205 -263 0
130 -263 0
131 -263 0
-205 -130 -131 263 0
168 -264 0
131 -264 0
-168 -131 264 0
205 -265 0
130 -265 0
131 -265 0
132 -265 0
-205 -130 -131 -132 265 0
168 -266 0
131 -266 0
132 -266 0
-168 -131 -132 266 0
169 -267 0
132 -267 0
-169 -132 267 0
205 -268 0
130 -268 0
131 -268 0
132 -268 0
133 -268 0
-205 -130 -131 -132 -133 268 0
168 -269 0
131 -269 0
132 -269 0
133 -269 0
-168 -131 -132 -133 269 0
169 -270 0
132 -270 0
133 -270 0
-169 -132 -133 270 0
170 -271 0
133 -271 0
-170 -133 271 0
-168 206 0
-262 206 0
168 262 -206 0
-169 207 0
-263 207 0
-264 207 0
169 263 264 -207 0
-170 208 0
-265 208 0
-266 208 0
-267 208 0
170 265 266 267 -208 0
-171 209 0
-268 209 0
-269 209 0
-270 209 0
-271 209 0
171 268 269 270 271 -209 0
209 -272 0
134 -272 0
-209 -134 272 0
209 -273 0
134 -273 0
135 -273 0
-209 -134 -135 273 0
172 -274 0
135 -274 0
-172 -135 274 0
209 -275 0
134 -275 0
135 -275 0
136 -275 0
-209 -134 -135 -136 275 0
172 -276 0
135 -276 0
136 -276 0
-172 -135 -136 276 0
173 -277 0
136 -277 0
-173 -136 277 0
209 -278 0
134 -278 0
135 -278 0
136 -278 0
137 -278 0
-209 -134 -135 -136 -137 278 0
172 -279 0
135 -279 0
136 -279 0
137 -279 0
-172 -135 -136 -137 279 0
173 -280 0
136 -280 0
137 -280 0
-173 -136 -137 280 0
174 -281 0
137 -281 0
-174 -137 281 0
-172 210 0
-272 210 0
172 272 -210 0
-173 211 0
-273 211 0
-274 211 0
173 273 274 -211 0
-174 212 0
-275 212 0
-276 212 0
-277 212 0
174 275 276 277 -212 0
-175 213 0
-278 213 0
-279 213 0
-280 213 0
-281 213 0
175 278 279 280 281 -213 0
213 -282 0
138 -282 0
-213 -138 282 0
213 -283 0
138 -283 0
139 -283 0
-213 -138 -139 283 0
176 -284 0
139 -284 0
-176 -139 284 0
213 -285 0
138 -285 0
139 -285 0
140 -285 0
-213 -138 -139 -140 285 0
176 -286 0
139 -286 0
140 -286 0
-176 -139 -140 286 0
177 -287 0
140 -287 0
-177 -140 287 0
213 -288 0
138 -288 0
139 -288 0
140 -288 0
141 -288 0
-213 -138 -139 -140 -141 288 0
176 -289 0
139 -289 0
140 -289 0
141 -289 0
-176 -139 -140 -141 289 0
177 -290 0
140 -290 0
141 -290 0
-177 -140 -141 290 0
178 -291 0
141 -291 0
-178 -141 291 0
-176 214 0
-282 214 0
176 282 -214 0
-177 215 0
-283 215 0
-284 215 0
177 283 284 -215 0
-178 216 0
-285 216 0
-286 216 0
-287 216 0
178 285 286 287 -216 0
-179 217 0
-288 217 0
-289 217 0
-290 217 0
-291 217 0
179 288 289 290 291 -217 0
217 -292 0
142 -292 0
-217 -142 292 0
217 -293 0
142 -293 0
143 -293 0
-217 -142 -143 293 0
180 -294 0
143 -294 0
-180 -143 294 0
217 -295 0
142 -295 0
143 -295 0
144 -295 0
-217 -142 -143 -144 295 0
180 -296 0
143 -296 0
144 -296 0
-180 -143 -144 296 0
181 -297 0
144 -297 0
-181 -144 297 0
217 -298 0
142 -298 0
143 -298 0
144 -298 0
145 -298 0
-217 -142 -143 -144 -145 298 0
180 -299 0
143 -299 0
144 -299 0
145 -299 0
-180 -143 -144 -145 299 0
181 -300 0
144 -300 0
145 -300 0
-181 -144 -145 300 0
182 -301 0
145 -301 0
-182 -145 301 0
-180 218 0
-292 218 0
180 292 -218 0
-181 219 0
-293 219 0
-294 219 0
181 293 294 -219 0
-182 220 0
-295 220 0
-296 220 0
-297 220 0
182 295 296 297 -220 0
-183 221 0
-298 221 0
-299 221 0
-300 221 0
-301 221 0
183 298 299 300 301 -221 0
221 -302 0
146 -302 0
-221 -146 302 0
221 -303 0
146 -303 0
147 -303 0
-221 -146 -147 303 0
184 -304 0
147 -304 0
-184 -147 304 0
221 -305 0
146 -305 0
147 -305 0
148 -305 0
-221 -146 -147 -148 305 0
184 -306 0
147 -306 0
148 -306 0
-184 -147 -148 306 0
185 -307 0
148 -307 0
-185 -148 307 0
221 -308 0
146 -308 0
147 -308 0
148 -308 0
149 -308 0
-221 -146 -147 -148 -149 308 0
184 -309 0
147 -309 0
148 -309 0
149 -309 0
-184 -147 -148 -149 309 0
185 -310 0
148 -310 0
149 -310 0
-185 -148 -149 310 0
186 -311 0
149 -311 0
-186 -149 311 0
-184 222 0
-302 222 0
184 302 -222 0
-185 223 0
-303 223 0
-304 223 0
185 303 304 -223 0
-186 224 0
-305 224 0
-306 224 0
-307 224 0
186 305 306 307 -224 0
-187 225 0
-308 225 0
-309 225 0
-310 225 0
-311 225 0
187 308 309 310 311 -225 0
225 -312 0
150 -312 0
-225 -150 312 0
225 -313 0
150 -313 0
151 -313 0
-225 -150 -151 313 0
188 -314 0
151 -314 0
-188 -151 314 0
225 -315 0
150 -315 0
151 -315 0
152 -315 0
-225 -150 -151 -152 315 0
188 -316 0
151 -316 0
152 -316 0
-188 -151 -152 316 0
189 -317 0
152 -317 0
-189 -152 317 0
225 -318 0
150 -318 0
151 -318 0
152 -318 0
153 -318 0
-225 -150 -151 -152 -153 318 0
188 -319 0
151 -319 0
152 -319 0
153 -319 0
-188 -151 -152 -153 319 0
189 -320 0
152 -320 0
153 -320 0
-189 -152 -153 320 0
190 -321 0
153 -321 0
-190 -153 321 0
-188 226 0
-312 226 0
188 312 -226 0
-189 227 0
-313 227 0
-314 227 0
189 313 314 -227 0
-190 228 0
-315 228 0
-316 228 0
-317 228 0
190 315 316 317 -228 0
-191 229 0
-318 229 0
-319 229 0
-320 229 0
-321 229 0
191 318 319 320 321 -229 0
229 -322 0
154 -322 0
-229 -154 322 0
229 -323 0
154 -323 0
155 -323 0
-229 -154 -155 323 0
192 -324 0
155 -324 0
-192 -155 324 0
-192 230 0
-322 230 0
192 322 -230 0
-193 231 0
-323 231 0
-324 231 0
193 323 324 -231 0
118 116 -77 0
-118 116 77 0
118 -116 77 0
-118 -116 -77 0
119 194 -78 0
-119 194 78 0
119 -194 78 0
-119 -194 -78 0
120 195 -79 0
-120 195 79 0
120 -195 79 0
-120 -195 -79 0
121 196 -80 0
-121 196 80 0
121 -196 80 0
-121 -196 -80 0
122 197 -81 0
-122 197 81 0
122 -197 81 0
-122 -197 -81 0
123 198 -82 0
-123 198 82 0
123 -198 82 0
-123 -198 -82 0
124 199 -83 0
-124 199 83 0
124 -199 83 0
-124 -199 -83 0
125 200 -84 0
-125 200 84 0
125 -200 84 0
-125 -200 -84 0
126 201 -85 0
-126 201 85 0
126 -201 85 0
-126 -201 -85 0
127 202 -86 0
-127 202 86 0
127 -202 86 0
-127 -202 -86 0
128 203 -87 0
-128 203 87 0
128 -203 87 0
-128 -203 -87 0
129 204 -88 0
-129 204 88 0
129 -204 88 0
-129 -204 -88 0
130 205 -89 0
-130 205 89 0
130 -205 89 0
-130 -205 -89 0
131 206 -90 0
-131 206 90 0
131 -206 90 0
-131 -206 -90 0
132 207 -91 0
-132 207 91 0
132 -207 91 0
-132 -207 -91 0
133 208 -92 0
-133 208 92 0
133 -208 92 0
-133 -208 -92 0
134 209 -93 0
-134 209 93 0
134 -209 93 0
-134 -209 -93 0
135 210 -94 0
-135 210 94 0
135 -210 94 0
-135 -210 -94 0
136 211 -95 0
-136 211 95 0
136 -211 95 0
-136 -211 -95 0
137 212 -96 0
-137 212 96 0
137 -212 96 0
-137 -212 -96 0
138 213 -97 0
-138 213 97 0
138 -213 97 0
-138 -213 -97 0
139 214 -98 0
-139 214 98 0
139 -214 98 0
-139 -214 -98 0
140 215 -99 0
-140 215 99 0
140 -215 99 0
-140 -215 -99 0
141 216 -100 0
-141 216 100 0
141 -216 100 0
-141 -216 -100 0
142 217 -101 0
-142 217 101 0
142 -217 101 0
-142 -217 -101 0
143 218 -102 0
-143 218 102 0
143 -218 102 0
-143 -218 -102 0
144 219 -103 0
-144 219 103 0
144 -219 103 0
-144 -219 -103 0
145 220 -104 0
-145 220 104 0
145 -220 104 0
-145 -220 -104 0
146 221 -105 0
-146 221 105 0
146 -221 105 0
-146 -221 -105 0
147 222 -106 0
-147 222 106 0
147 -222 106 0
-147 -222 -106 0
148 223 -107 0
-148 223 107 0
148 -223 107 0
-148 -223 -107 0
149 224 -108 0
-149 224 108 0
149 -224 108 0
-149 -224 -108 0
150 225 -109 0
-150 225 109 0
150 -225 109 0
-150 -225 -109 0
151 226 -110 0
-151 226 110 0
151 -226 110 0
-151 -226 -110 0
152 227 -111 0
-152 227 111 0
152 -227 111 0
-152 -227 -111 0
153 228 -112 0
-153 228 112 0
153 -228 112 0
-153 -228 -112 0
154 229 -113 0
-154 229 113 0
154 -229 113 0
-154 -229 -113 0
155 230 -114 0
-155 230 114 0
155 -230 114 0
-155 -230 -114 0
231 -115 0
-231 115 0
